
Gurobi 9.5.2 (win64) logging started Mon Mar 27 20:33:53 2023

Set parameter LogFile to value "2023-03-27_20hr-25min-09sec/Nodes10_Arcs35_LocNodes8/Formulation-1Instance-2.log"
Set parameter TimeLimit to value 600
Set parameter IntFeasTol to value 1e-09
Set parameter DualReductions to value 0
Set parameter NonConvex to value 2
Gurobi Optimizer version 9.5.2 build v9.5.2rc0 (win64)
Thread count: 4 physical cores, 8 logical processors, using up to 8 threads
Optimize a model with 64 rows, 116 columns and 282 nonzeros
Model fingerprint: 0x7c1d497b
Model has 8 quadratic objective terms
Model has 45 SOS constraints
Variable types: 108 continuous, 8 integer (8 binary)
Coefficient statistics:
  Matrix range     [3e-02, 2e+02]
  Objective range  [3e+00, 2e+02]
  QObjective range [2e+00, 2e+00]
  Bounds range     [1e+00, 1e+00]
  RHS range        [3e-03, 1e+03]
Presolve time: 0.00s
Presolved: 81 rows, 126 columns, 323 nonzeros
Presolved model has 45 SOS constraint(s)
Presolved model has 8 bilinear constraint(s)
Variable types: 118 continuous, 8 integer (8 binary)

Root relaxation: unbounded, 60 iterations, 0.00 seconds (0.00 work units)

    Nodes    |    Current Node    |     Objective Bounds      |     Work
 Expl Unexpl |  Obj  Depth IntInf | Incumbent    BestBd   Gap | It/Node Time

     0     0  postponed    0               -          -      -     -    0s
     0     0  postponed    0               -          -      -     -    0s
Exploring 100 nodes in MinRel heuristic
No solution found by MinRel heuristic
     0     2  postponed    0               -          -      -     -    0s
Exploring 10000 nodes in MinRel heuristic
No solution found by MinRel heuristic
 15189  3644 infeasible   27               -          -      -  25.2    5s
 38486  6783 infeasible   30               - 422709.840      -  20.6   10s
H52618  6450                    86488.994603 253197.285   193%  17.9   12s
H53124  6351                    90583.591862 252196.152   178%  17.9   12s
H53222  6336                    91443.344567 252196.152   176%  17.9   12s
H53252  6262                    95378.877883 252196.152   164%  17.9   12s
H57142  6076                    95478.401314 229978.063   141%  17.3   13s
 65897  5523 infeasible   38      95478.4013 195078.674   104%  16.3   15s
 95205  3330 infeasible   32      95478.4013 131017.466  37.2%  14.1   20s
*109426   966              95    95478.401364 101748.408  6.57%  13.2   22s
*109427   966              95    95478.401386 101748.408  6.57%  13.2   22s
*109431   966              94    95478.401727 101748.408  6.57%  13.2   22s
*109432   966              94    95478.401747 101748.408  6.57%  13.2   22s
*110832   838              75    95494.004734 100217.759  4.95%  13.1   23s
H110835   837                    95495.290304 100217.759  4.95%  13.1   23s
*111722   753              87    95500.619991 99244.7504  3.92%  13.0   23s
*111726   753              90    95500.625592 99244.7504  3.92%  13.0   23s
*111728   753              91    95500.625872 99244.7504  3.92%  13.0   23s
*113125   691              62    95538.924235 97742.4616  2.31%  12.9   23s
*113150   688              84    95541.519551 97742.4616  2.30%  12.9   23s
*113156   688              89    95541.646599 97742.4616  2.30%  12.9   23s
H116838   178                    95541.726041 95876.7235  0.35%  12.6   24s
*117315   178              72    95543.852588 95690.1772  0.15%  12.5   24s
*117506   156              90    95543.956318 95670.9729  0.13%  12.5   24s
*117508   156              90    95543.962767 95670.9729  0.13%  12.5   24s
*117746   156              91    95544.230389 95661.3969  0.12%  12.5   24s
*117748   156              92    95544.230771 95661.3969  0.12%  12.5   24s
*117751   156              91    95544.239612 95661.3969  0.12%  12.5   24s
*117753   156              92    95544.240023 95661.3969  0.12%  12.5   24s
*118197   602              80    95544.282754 95576.8075  0.03%  12.4   24s
*118200   602              82    95544.295714 95576.8075  0.03%  12.4   24s
*118201   602              82    95544.296112 95576.8075  0.03%  12.4   24s
*118369   602              91    95544.303349 95568.9270  0.03%  12.4   24s
*118469   602              87    95544.324826 95563.9048  0.02%  12.4   24s
*119219   602              89    95544.401927 95549.0836  0.00%  12.3   24s
*119221   602              90    95544.402165 95549.0836  0.00%  12.3   24s

Explored 119264 nodes (1470506 simplex iterations) in 24.85 seconds (5.28 work units)
Thread count was 8 (of 8 available processors)

Solution count 10: 95544.4 95544.4 95544.3 ... 95544.2

Optimal solution found (tolerance 1.00e-04)
Best objective 9.554440216514e+04, best bound 9.554908358723e+04, gap 0.0049%

User-callback calls 242615, time in user-callback 2.42 sec
